sat
(:added-eqs                       2368
 :arith-eq-adapter                157
 :arith-bound-propagations-lp     57
 :arith-branch                    2
 :arith-conflicts                 308
 :arith-cube-calls                1
 :arith-diseq                     82
 :arith-fixed-eqs                 90
 :arith-gcd-calls                 31
 :arith-grobner-calls             26
 :arith-grobner-conflicts         24
 :arith-hnf-calls                 1
 :arith-horner-calls              2
 :arith-horner-conflicts          1
 :arith-horner-cross-nested-forms 2568
 :arith-lower                     483
 :arith-make-feasible             482
 :arith-max-columns               1527
 :arith-max-rows                  638
 :arith-nla-add-bounds            9
 :arith-nla-lemmas                171
 :arith-nla-propagate-bounds      106
 :arith-nla-propagate-eq          3186
 :arith-nra-calls                 6
 :arith-offset-eqs                259
 :arith-patches                   31
 :arith-patches-success           29
 :arith-upper                     644
 :binary-propagations             467
 :conflicts                       46
 :decisions                       717
 :del-clause                      260
 :final-checks                    61
 :max-memory                      64.81
 :memory                          18.46
 :minimized-lits                  4
 :mk-bool-var                     1483
 :mk-clause                       461
 :mk-clause-binary                5554
 :nlsat-conflicts                 432
 :nlsat-propagations              26358
 :nlsat-stages                    22686
 :num-allocs                      205310241
 :num-checks                      1
 :propagations                    788
 :rlimit-count                    743384
 :sls-arith-steps                 8884
 :sls-ddfw-flips                  32931.00
 :sls-ddfw-reinits                2
 :sls-ddfw-shifts                 3607.00
 :sls-num-guided-search           30
 :sls-repair-down                 794
 :sls-repair-up                   1630
 :solve-eqs-elim-vars             130
 :solve-eqs-steps                 2209
 :time                            1.85
 :total-time                      1.85)
